;; Mutation-Based Equivalence Benchmark
;; Source:     AutomatArk / instance13152.smt2
;; Mutations:  intersect_no_upper2
;; Status:     sat
;;
;; Original regex vs mutated regex
;; Equivalence check: unsat ⟺ L(R1) = L(R2)

(set-info :smt-lib-version 2.6)
(set-info :category "mutation")
(set-info :status sat)
(set-logic QF_S)


;; R1: original
;; R2: mutated (intersect_no_upper2)
(assert
  (not
    (=
      (re.++ (str.to_re "Host:") (re.* (re.union (str.to_re "\u{a}") (str.to_re "\u{d}"))) (str.to_re "Travel") (re.* (re.union (str.to_re "\u{a}") (str.to_re "\u{d}"))) (str.to_re "From:www.ZSearchResults.com\u{13}\u{a}"))
      (re.++ (str.to_re "Host:") (re.* (re.union (str.to_re "\u{a}") (str.to_re "\u{d}"))) (str.to_re "Travel") (re.* (re.union (str.to_re "\u{a}") (str.to_re "\u{d}"))) (re.inter (str.to_re "From:www.ZSearchResults.com\u{13}\u{a}") (re.comp (re.++ re.all ((_ re.loop 2 2) (re.range "A" "Z")) re.all)))))))

(check-sat)
(exit)
